\ENCODING=ISO-8859-1
\Problem name: ilog.cplex

Minimize
 obj1: 94748 x1 + 92706 x2 + 107539 x3 + 108278 x4 + 97937 x5 + 92648 x6
       + 93484 x7 + 91257 x8 + 108815 x9 + 101394 x10 + 90748 x11 + 98403 x12
       + 93754 x13 + 90086 x14 + 90086 x15 + 93114 x16 + 101092 x17 + 92195 x18
       + 102254 x19 + 102483 x20 + 103289 x21 + 102082 x22 + 95595 x23
       + 100683 x24 + 97257 x25 + 106868 x26 + 105546 x27 + 97203 x28
       + 98954 x29 + 90058 x30 + 105678 x31 + 93560 x32 + 109285 x33
       + 95880 x34 + 101157 x35 + 105417 x36 + 94942 x37 + 104379 x38
       + 92396 x39 + 100949 x40 + 100022 x41 + 99082 x42 + 99214 x43
       + 100863 x44 + 102083 x45 + 91385 x46 + 93921 x47 + 100644 x48
       + 109763 x49 + 98810 x50 + 105565 x51 + 91416 x52 + 108180 x53
       + 97902 x54 + 106932 x55 + 92206 x56 + 93011 x57 + 106755 x58
       + 100931 x59 + 103473 x60 + 109439 x61 + 98653 x62 + 90917 x63
       + 97540 x64 + 95035 x65 + 104211 x66 + 104166 x67 + 100395 x68
       + 102232 x69 + 91727 x70 + 93978 x71 + 102700 x72 + 90069 x73
       + 103236 x74 + 96725 x75 + 109833 x76 + 102838 x77 + 99996 x78
       + 99422 x79 + 103753 x80 + 91737 x81 + 99600 x82 + 96986 x83 + 93512 x84
       + 96682 x85 + 93538 x86 + 106723 x87 + 93879 x88 + 97049 x89 + 91609 x90
       + 101295 x91 + 96984 x92 + 102771 x93 + 90543 x94 + 101941 x95
       + 103187 x96 + 100543 x97 + 100775 x98 + 104814 x99 + 94272 x100
       + 93779 x101 + 107520 x102 + 95046 x103 + 104555 x104 + 99550 x105
       + 90125 x106 + 95519 x107 + 93689 x108 + 90887 x109 + 97138 x110
       + 100295 x111 + 108670 x112 + 98632 x113 + 93610 x114 + 96293 x115
       + 101967 x116 + 93468 x117 + 101869 x118 + 101003 x119 + 107727 x120
       + 108626 x121 + 108674 x122 + 96674 x123 + 105021 x124 + 92225 x125
       + 97894 x126 + 98095 x127 + 99002 x128 + 97573 x129 + 91021 x130
       + 98901 x131 + 102261 x132 + 90334 x133 + 98268 x134 + 90625 x135
       + 105026 x136 + 97840 x137 + 107044 x138 + 108627 x139 + 100588 x140
       + 104262 x141 + 93434 x142 + 98071 x143 + 101416 x144 + 90455 x145
       + 105095 x146 + 107623 x147 + 101413 x148 + 103102 x149 + 102157 x150
       + 107590 x151 + 108389 x152 + 93366 x153 + 95368 x154 + 90168 x155
       + 101313 x156 + 96586 x157 + 94036 x158 + 96054 x159 + 108055 x160
       + 91398 x161 + 90237 x162 + 103888 x163 + 91003 x164 + 99221 x165
       + 100329 x166 + 96804 x167 + 90377 x168 + 103173 x169 + 99959 x170
       + 103855 x171 + 107990 x172 + 99242 x173 + 104572 x174 + 103131 x175
       + 97852 x176 + 101967 x177 + 103854 x178 + 108121 x179 + 104245 x180
       + 92748 x181 + 92439 x182 + 102013 x183 + 107904 x184 + 95205 x185
       + 101184 x186 + 90371 x187 + 93940 x188 + 95711 x189 + 90199 x190
       + 97626 x191 + 90631 x192 + 101451 x193 + 100458 x194 + 99686 x195
       + 99171 x196 + 109588 x197 + 96158 x198 + 105005 x199 + 99033 x200
       + 99372 x201 + 104769 x202 + 93535 x203 + 96719 x204 + 107274 x205
       + 102620 x206 + 103377 x207 + 94497 x208 + 102162 x209 + 95968 x210
       + 109488 x211 + 106177 x212 + 107431 x213 + 93067 x214 + 101532 x215
       + 97889 x216 + 97460 x217 + 104088 x218 + 91213 x219 + 108440 x220
       + 106892 x221 + 102587 x222 + 103397 x223 + 106030 x224 + 92978 x225
       + 94767 x226 + 109852 x227 + 105906 x228 + 103582 x229 + 90906 x230
       + 109616 x231 + 107051 x232 + 106428 x233 + 97118 x234 + 105825 x235
       + 105025 x236 + 108795 x237 + 104965 x238 + 95219 x239 + 102816 x240
       + 91898 x241 + 92636 x242 + 93008 x243 + 108452 x244 + 91614 x245
       + 93363 x246 + 101702 x247 + 97243 x248 + 96625 x249 + 91472 x250
       + 97127 x251 + 100848 x252 + 109340 x253 + 103545 x254 + 100778 x255
       + 108599 x256 + 107104 x257 + 91211 x258 + 96213 x259 + 103618 x260
       + 92346 x261 + 106321 x262 + 105363 x263 + 106917 x264 + 97996 x265
       + 105244 x266 + 96283 x267 + 90441 x268 + 90182 x269 + 102135 x270
       + 97539 x271 + 101252 x272 + 105538 x273 + 90872 x274 + 90111 x275
       + 91730 x276 + 101425 x277 + 95866 x278 + 98938 x279 + 103966 x280
       + 103937 x281 + 93050 x282 + 93140 x283 + 90447 x284 + 90793 x285
       + 94096 x286 + 106458 x287 + 107673 x288 + 104012 x289 + 109271 x290
       + 107614 x291 + 94557 x292 + 90759 x293 + 97324 x294 + 104048 x295
       + 103213 x296 + 99819 x297 + 94430 x298 + 91886 x299 + 272764 x300
       + 18810 x301 + 18077 x302 + 20085 x303 + 21421 x304 + 20027 x305
       + 20668 x306 + 21112 x307 + 19085 x308 + 20589 x309 + 18543 x310
       + 20245 x311 + 20452 x312 + 18165 x313 + 21839 x314 + 20602 x315
       + 20225 x316 + 19549 x317 + 20009 x318 + 20313 x319 + 20872 x320
       + 20535 x321 + 19335 x322 + 18884 x323 + 18821 x324 + 20678 x325
       + 21919 x326 + 21585 x327 + 18098 x328 + 19241 x329 + 19785 x330
       + 18139 x331 + 19021 x332 + 18725 x333 + 21044 x334 + 20838 x335
       + 20068 x336 + 20861 x337 + 19768 x338 + 20307 x339 + 18940 x340
       + 20778 x341 + 19276 x342 + 18710 x343 + 20060 x344 + 20294 x345
       + 19986 x346 + 18095 x347 + 18405 x348 + 18864 x349 + 19806 x350
       + 19858 x351 + 21564 x352 + 20713 x353 + 19212 x354 + 21958 x355
       + 21277 x356 + 18987 x357 + 18744 x358 + 19570 x359 + 26563 x360
Subject To
 c1:   x3 - x15 + x34 - x50 - x58  = 0
 c2:   x63 - x75 + x94 - x110 - x118  = 0
 c3:   x123 - x135 + x154 - x170 - x178  = 0
 c4:   x183 - x195 + x214 - x230 - x238  = 0
 c5:   x243 - x255 + x274 - x290 - x298  = 0
 c6:   - x5 + x10 + x12 + x21 - x22 - x24 - x30 + x48 + x51 + x52 + x55  = 0
 c7:   - x65 + x70 + x72 + x81 - x82 - x84 - x90 + x108 + x111 + x112 + x115
        = 0
 c8:   - x125 + x130 + x132 + x141 - x142 - x144 - x150 + x168 + x171 + x172
       + x175  = 0
 c9:   - x185 + x190 + x192 + x201 - x202 - x204 - x210 + x228 + x231 + x232
       + x235  = 0
 c10:  - x245 + x250 + x252 + x261 - x262 - x264 - x270 + x288 + x291 + x292
       + x295  = 1
 c11:  - x1 + x5 - x21 + x25 - x28 + x45 - x46 + x49 + x59  = 0
 c12:  - x61 + x65 - x81 + x85 - x88 + x105 - x106 + x109 + x119  = 0
 c13:  - x121 + x125 - x141 + x145 - x148 + x165 - x166 + x169 + x179  = 0
 c14:  - x181 + x185 - x201 + x205 - x208 + x225 - x226 + x229 + x239  = 0
 c15:  - x241 + x245 - x261 + x265 - x268 + x285 - x286 + x289 + x299  = -1
 c16:  x6 - x13 + x20 + x32 - x42 - x53 + x57 - x59  = 0
 c17:  x66 - x73 + x80 + x92 - x102 - x113 + x117 - x119  = 0
 c18:  x126 - x133 + x140 + x152 - x162 - x173 + x177 - x179  = 0
 c19:  x186 - x193 + x200 + x212 - x222 - x233 + x237 - x239  = 0
 c20:  x246 - x253 + x260 + x272 - x282 - x293 + x297 - x299  = 0
 c21:  - x3 - x12 + x14 + x24 - x26 - x27 - x39 + x44 + x56 - x60  = 0
 c22:  - x63 - x72 + x74 + x84 - x86 - x87 - x99 + x104 + x116 - x120  = 0
 c23:  - x123 - x132 + x134 + x144 - x146 - x147 - x159 + x164 + x176 - x180
        = 0
 c24:  - x183 - x192 + x194 + x204 - x206 - x207 - x219 + x224 + x236 - x240
        = 1
 c25:  - x243 - x252 + x254 + x264 - x266 - x267 - x279 + x284 + x296 - x300
        = 0
 c26:  x1 - x7 + x15 + x31 + x36 + x38 - x47 - x55 - x56  = 0
 c27:  x61 - x67 + x75 + x91 + x96 + x98 - x107 - x115 - x116  = 1
 c28:  x121 - x127 + x135 + x151 + x156 + x158 - x167 - x175 - x176  = 0
 c29:  x181 - x187 + x195 + x211 + x216 + x218 - x227 - x235 - x236  = 0
 c30:  x241 - x247 + x255 + x271 + x276 + x278 - x287 - x295 - x296  = 0
 c31:  x7 - x11 + x27 + x29 + x30 + x35 - x37 - x44 - x45 + x46 - x48  = 0
 c32:  x67 - x71 + x87 + x89 + x90 + x95 - x97 - x104 - x105 + x106 - x108  = 0
 c33:  x127 - x131 + x147 + x149 + x150 + x155 - x157 - x164 - x165 + x166
       - x168  = -1
 c34:  x187 - x191 + x207 + x209 + x210 + x215 - x217 - x224 - x225 + x226
       - x228  = -1
 c35:  x247 - x251 + x267 + x269 + x270 + x275 - x277 - x284 - x285 + x286
       - x288  = 0
 c36:  - x4 + x8 - x16 - x19 + x23 + x26 - x32 - x34 - x35 + x41 + x54  = -1
 c37:  - x64 + x68 - x76 - x79 + x83 + x86 - x92 - x94 - x95 + x101 + x114  = 0
 c38:  - x124 + x128 - x136 - x139 + x143 + x146 - x152 - x154 - x155 + x161
       + x174  = 0
 c39:  - x184 + x188 - x196 - x199 + x203 + x206 - x212 - x214 - x215 + x221
       + x234  = 0
 c40:  - x244 + x248 - x256 - x259 + x263 + x266 - x272 - x274 - x275 + x281
       + x294  = 0
 c41:  - x2 - x10 + x11 - x17 - x20 - x38 + x40  = 0
 c42:  - x62 - x70 + x71 - x77 - x80 - x98 + x100  = 0
 c43:  - x122 - x130 + x131 - x137 - x140 - x158 + x160  = 0
 c44:  - x182 - x190 + x191 - x197 - x200 - x218 + x220  = 0
 c45:  - x242 - x250 + x251 - x257 - x260 - x278 + x280  = 0
 c46:  x16 + x22 - x41 + x43  = 1
 c47:  x76 + x82 - x101 + x103  = 0
 c48:  x136 + x142 - x161 + x163  = 0
 c49:  x196 + x202 - x221 + x223  = 0
 c50:  x256 + x262 - x281 + x283  = 0
 c51:  x4 + x9 - x23 - x25 - x33 - x36 + x37  = 0
 c52:  x64 + x69 - x83 - x85 - x93 - x96 + x97  = -1
 c53:  x124 + x129 - x143 - x145 - x153 - x156 + x157  = 0
 c54:  x184 + x189 - x203 - x205 - x213 - x216 + x217  = 0
 c55:  x244 + x249 - x263 - x265 - x273 - x276 + x277  = 0
 c56:  - x8 + x17 - x40 + x47 - x49 - x52 + x58  = 0
 c57:  - x68 + x77 - x100 + x107 - x109 - x112 + x118  = 0
 c58:  - x128 + x137 - x160 + x167 - x169 - x172 + x178  = 0
 c59:  - x188 + x197 - x220 + x227 - x229 - x232 + x238  = 0
 c60:  - x248 + x257 - x280 + x287 - x289 - x292 + x298  = 0
 c61:  x18 + x33 + x42  = 0
 c62:  x78 + x93 + x102  = 0
 c63:  x138 + x153 + x162  = 1
 c64:  x198 + x213 + x222  = 0
 c65:  x258 + x273 + x282  = 0
 c66:  - x6 + x13 + x19 - x31 + x39 - x43 + x50 - x54  = 0
 c67:  - x66 + x73 + x79 - x91 + x99 - x103 + x110 - x114  = 0
 c68:  - x126 + x133 + x139 - x151 + x159 - x163 + x170 - x174  = 0
 c69:  - x186 + x193 + x199 - x211 + x219 - x223 + x230 - x234  = 0
 c70:  - x246 + x253 + x259 - x271 + x279 - x283 + x290 - x294  = 0
 c71:  x2 - x9 - x14 - x18 + x28 - x29 - x51 + x53 - x57 + x60  = 0
 c72:  x62 - x69 - x74 - x78 + x88 - x89 - x111 + x113 - x117 + x120  = 0
 c73:  x122 - x129 - x134 - x138 + x148 - x149 - x171 + x173 - x177 + x180  = 0
 c74:  x182 - x189 - x194 - x198 + x208 - x209 - x231 + x233 - x237 + x240  = 0
 c75:  x242 - x249 - x254 - x258 + x268 - x269 - x291 + x293 - x297 + x300  = 0
 c76:  4 x1 + 4 x61 + 4 x121 + 4 x181 + 4 x241 - 2 x301 <= 0
 c77:  4 x2 + 4 x62 + 4 x122 + 4 x182 + 4 x242 - 2 x302 <= 0
 c78:  4 x3 + 4 x63 + 4 x123 + 4 x183 + 4 x243 - 2 x303 <= 0
 c79:  4 x4 + 4 x64 + 4 x124 + 4 x184 + 4 x244 - 2 x304 <= 0
 c80:  4 x5 + 4 x65 + 4 x125 + 4 x185 + 4 x245 - 2 x305 <= 0
 c81:  4 x6 + 4 x66 + 4 x126 + 4 x186 + 4 x246 - 2 x306 <= 0
 c82:  4 x7 + 4 x67 + 4 x127 + 4 x187 + 4 x247 - 2 x307 <= 0
 c83:  4 x8 + 4 x68 + 4 x128 + 4 x188 + 4 x248 - 2 x308 <= 0
 c84:  4 x9 + 4 x69 + 4 x129 + 4 x189 + 4 x249 - 2 x309 <= 0
 c85:  4 x10 + 4 x70 + 4 x130 + 4 x190 + 4 x250 - 2 x310 <= 0
 c86:  4 x11 + 4 x71 + 4 x131 + 4 x191 + 4 x251 - 2 x311 <= 0
 c87:  4 x12 + 4 x72 + 4 x132 + 4 x192 + 4 x252 - 2 x312 <= 0
 c88:  4 x13 + 4 x73 + 4 x133 + 4 x193 + 4 x253 - 2 x313 <= 0
 c89:  4 x14 + 4 x74 + 4 x134 + 4 x194 + 4 x254 - 2 x314 <= 0
 c90:  4 x15 + 4 x75 + 4 x135 + 4 x195 + 4 x255 - 2 x315 <= 0
 c91:  4 x16 + 4 x76 + 4 x136 + 4 x196 + 4 x256 - 2 x316 <= 0
 c92:  4 x17 + 4 x77 + 4 x137 + 4 x197 + 4 x257 - 2 x317 <= 0
 c93:  4 x18 + 4 x78 + 4 x138 + 4 x198 + 4 x258 - 2 x318 <= 0
 c94:  4 x19 + 4 x79 + 4 x139 + 4 x199 + 4 x259 - 2 x319 <= 0
 c95:  4 x20 + 4 x80 + 4 x140 + 4 x200 + 4 x260 - 2 x320 <= 0
 c96:  4 x21 + 4 x81 + 4 x141 + 4 x201 + 4 x261 - 2 x321 <= 0
 c97:  4 x22 + 4 x82 + 4 x142 + 4 x202 + 4 x262 - 2 x322 <= 0
 c98:  4 x23 + 4 x83 + 4 x143 + 4 x203 + 4 x263 - 2 x323 <= 0
 c99:  4 x24 + 4 x84 + 4 x144 + 4 x204 + 4 x264 - 2 x324 <= 0
 c100: 4 x25 + 4 x85 + 4 x145 + 4 x205 + 4 x265 - 2 x325 <= 0
 c101: 4 x26 + 4 x86 + 4 x146 + 4 x206 + 4 x266 - 2 x326 <= 0
 c102: 4 x27 + 4 x87 + 4 x147 + 4 x207 + 4 x267 - 2 x327 <= 0
 c103: 4 x28 + 4 x88 + 4 x148 + 4 x208 + 4 x268 - 2 x328 <= 0
 c104: 4 x29 + 4 x89 + 4 x149 + 4 x209 + 4 x269 - 2 x329 <= 0
 c105: 4 x30 + 4 x90 + 4 x150 + 4 x210 + 4 x270 - 2 x330 <= 0
 c106: 4 x31 + 4 x91 + 4 x151 + 4 x211 + 4 x271 - 2 x331 <= 0
 c107: 4 x32 + 4 x92 + 4 x152 + 4 x212 + 4 x272 - 2 x332 <= 0
 c108: 4 x33 + 4 x93 + 4 x153 + 4 x213 + 4 x273 - 2 x333 <= 0
 c109: 4 x34 + 4 x94 + 4 x154 + 4 x214 + 4 x274 - 2 x334 <= 0
 c110: 4 x35 + 4 x95 + 4 x155 + 4 x215 + 4 x275 - 2 x335 <= 0
 c111: 4 x36 + 4 x96 + 4 x156 + 4 x216 + 4 x276 - 2 x336 <= 0
 c112: 4 x37 + 4 x97 + 4 x157 + 4 x217 + 4 x277 - 2 x337 <= 0
 c113: 4 x38 + 4 x98 + 4 x158 + 4 x218 + 4 x278 - 2 x338 <= 0
 c114: 4 x39 + 4 x99 + 4 x159 + 4 x219 + 4 x279 - 2 x339 <= 0
 c115: 4 x40 + 4 x100 + 4 x160 + 4 x220 + 4 x280 - 2 x340 <= 0
 c116: 4 x41 + 4 x101 + 4 x161 + 4 x221 + 4 x281 - 2 x341 <= 0
 c117: 4 x42 + 4 x102 + 4 x162 + 4 x222 + 4 x282 - 2 x342 <= 0
 c118: 4 x43 + 4 x103 + 4 x163 + 4 x223 + 4 x283 - 2 x343 <= 0
 c119: 4 x44 + 4 x104 + 4 x164 + 4 x224 + 4 x284 - 2 x344 <= 0
 c120: 4 x45 + 4 x105 + 4 x165 + 4 x225 + 4 x285 - 2 x345 <= 0
 c121: 4 x46 + 4 x106 + 4 x166 + 4 x226 + 4 x286 - 2 x346 <= 0
 c122: 4 x47 + 4 x107 + 4 x167 + 4 x227 + 4 x287 - 2 x347 <= 0
 c123: 4 x48 + 4 x108 + 4 x168 + 4 x228 + 4 x288 - 2 x348 <= 0
 c124: 4 x49 + 4 x109 + 4 x169 + 4 x229 + 4 x289 - 2 x349 <= 0
 c125: 4 x50 + 4 x110 + 4 x170 + 4 x230 + 4 x290 - 2 x350 <= 0
 c126: 4 x51 + 4 x111 + 4 x171 + 4 x231 + 4 x291 - 2 x351 <= 0
 c127: 4 x52 + 4 x112 + 4 x172 + 4 x232 + 4 x292 - 2 x352 <= 0
 c128: 4 x53 + 4 x113 + 4 x173 + 4 x233 + 4 x293 - 2 x353 <= 0
 c129: 4 x54 + 4 x114 + 4 x174 + 4 x234 + 4 x294 - 2 x354 <= 0
 c130: 4 x55 + 4 x115 + 4 x175 + 4 x235 + 4 x295 - 2 x355 <= 0
 c131: 4 x56 + 4 x116 + 4 x176 + 4 x236 + 4 x296 - 2 x356 <= 0
 c132: 4 x57 + 4 x117 + 4 x177 + 4 x237 + 4 x297 - 2 x357 <= 0
 c133: 4 x58 + 4 x118 + 4 x178 + 4 x238 + 4 x298 - 2 x358 <= 0
 c134: 4 x59 + 4 x119 + 4 x179 + 4 x239 + 4 x299 - 2 x359 <= 0
 c135: 4 x60 + 4 x120 + 4 x180 + 4 x240 + 4 x300 - 2 x360 <= 0
Bounds
 0 <= x1 <= 1
 0 <= x2 <= 1
 0 <= x3 <= 1
 0 <= x4 <= 1
 0 <= x5 <= 1
 0 <= x6 <= 1
 0 <= x7 <= 1
 0 <= x8 <= 1
 0 <= x9 <= 1
 0 <= x10 <= 1
 0 <= x11 <= 1
 0 <= x12 <= 1
 0 <= x13 <= 1
 0 <= x14 <= 1
 0 <= x15 <= 1
 0 <= x16 <= 1
 0 <= x17 <= 1
 0 <= x18 <= 1
 0 <= x19 <= 1
 0 <= x20 <= 1
 0 <= x21 <= 1
 0 <= x22 <= 1
 0 <= x23 <= 1
 0 <= x24 <= 1
 0 <= x25 <= 1
 0 <= x26 <= 1
 0 <= x27 <= 1
 0 <= x28 <= 1
 0 <= x29 <= 1
 0 <= x30 <= 1
 0 <= x31 <= 1
 0 <= x32 <= 1
 0 <= x33 <= 1
 0 <= x34 <= 1
 0 <= x35 <= 1
 0 <= x36 <= 1
 0 <= x37 <= 1
 0 <= x38 <= 1
 0 <= x39 <= 1
 0 <= x40 <= 1
 0 <= x41 <= 1
 0 <= x42 <= 1
 0 <= x43 <= 1
 0 <= x44 <= 1
 0 <= x45 <= 1
 0 <= x46 <= 1
 0 <= x47 <= 1
 0 <= x48 <= 1
 0 <= x49 <= 1
 0 <= x50 <= 1
 0 <= x51 <= 1
 0 <= x52 <= 1
 0 <= x53 <= 1
 0 <= x54 <= 1
 0 <= x55 <= 1
 0 <= x56 <= 1
 0 <= x57 <= 1
 0 <= x58 <= 1
 0 <= x59 <= 1
 0 <= x60 <= 1
 0 <= x61 <= 1
 0 <= x62 <= 1
 0 <= x63 <= 1
 0 <= x64 <= 1
 0 <= x65 <= 1
 0 <= x66 <= 1
 0 <= x67 <= 1
 0 <= x68 <= 1
 0 <= x69 <= 1
 0 <= x70 <= 1
 0 <= x71 <= 1
 0 <= x72 <= 1
 0 <= x73 <= 1
 0 <= x74 <= 1
 0 <= x75 <= 1
 0 <= x76 <= 1
 0 <= x77 <= 1
 0 <= x78 <= 1
 0 <= x79 <= 1
 0 <= x80 <= 1
 0 <= x81 <= 1
 0 <= x82 <= 1
 0 <= x83 <= 1
 0 <= x84 <= 1
 0 <= x85 <= 1
 0 <= x86 <= 1
 0 <= x87 <= 1
 0 <= x88 <= 1
 0 <= x89 <= 1
 0 <= x90 <= 1
 0 <= x91 <= 1
 0 <= x92 <= 1
 0 <= x93 <= 1
 0 <= x94 <= 1
 0 <= x95 <= 1
 0 <= x96 <= 1
 0 <= x97 <= 1
 0 <= x98 <= 1
 0 <= x99 <= 1
 0 <= x100 <= 1
 0 <= x101 <= 1
 0 <= x102 <= 1
 0 <= x103 <= 1
 0 <= x104 <= 1
 0 <= x105 <= 1
 0 <= x106 <= 1
 0 <= x107 <= 1
 0 <= x108 <= 1
 0 <= x109 <= 1
 0 <= x110 <= 1
 0 <= x111 <= 1
 0 <= x112 <= 1
 0 <= x113 <= 1
 0 <= x114 <= 1
 0 <= x115 <= 1
 0 <= x116 <= 1
 0 <= x117 <= 1
 0 <= x118 <= 1
 0 <= x119 <= 1
 0 <= x120 <= 1
 0 <= x121 <= 1
 0 <= x122 <= 1
 0 <= x123 <= 1
 0 <= x124 <= 1
 0 <= x125 <= 1
 0 <= x126 <= 1
 0 <= x127 <= 1
 0 <= x128 <= 1
 0 <= x129 <= 1
 0 <= x130 <= 1
 0 <= x131 <= 1
 0 <= x132 <= 1
 0 <= x133 <= 1
 0 <= x134 <= 1
 0 <= x135 <= 1
 0 <= x136 <= 1
 0 <= x137 <= 1
 0 <= x138 <= 1
 0 <= x139 <= 1
 0 <= x140 <= 1
 0 <= x141 <= 1
 0 <= x142 <= 1
 0 <= x143 <= 1
 0 <= x144 <= 1
 0 <= x145 <= 1
 0 <= x146 <= 1
 0 <= x147 <= 1
 0 <= x148 <= 1
 0 <= x149 <= 1
 0 <= x150 <= 1
 0 <= x151 <= 1
 0 <= x152 <= 1
 0 <= x153 <= 1
 0 <= x154 <= 1
 0 <= x155 <= 1
 0 <= x156 <= 1
 0 <= x157 <= 1
 0 <= x158 <= 1
 0 <= x159 <= 1
 0 <= x160 <= 1
 0 <= x161 <= 1
 0 <= x162 <= 1
 0 <= x163 <= 1
 0 <= x164 <= 1
 0 <= x165 <= 1
 0 <= x166 <= 1
 0 <= x167 <= 1
 0 <= x168 <= 1
 0 <= x169 <= 1
 0 <= x170 <= 1
 0 <= x171 <= 1
 0 <= x172 <= 1
 0 <= x173 <= 1
 0 <= x174 <= 1
 0 <= x175 <= 1
 0 <= x176 <= 1
 0 <= x177 <= 1
 0 <= x178 <= 1
 0 <= x179 <= 1
 0 <= x180 <= 1
 0 <= x181 <= 1
 0 <= x182 <= 1
 0 <= x183 <= 1
 0 <= x184 <= 1
 0 <= x185 <= 1
 0 <= x186 <= 1
 0 <= x187 <= 1
 0 <= x188 <= 1
 0 <= x189 <= 1
 0 <= x190 <= 1
 0 <= x191 <= 1
 0 <= x192 <= 1
 0 <= x193 <= 1
 0 <= x194 <= 1
 0 <= x195 <= 1
 0 <= x196 <= 1
 0 <= x197 <= 1
 0 <= x198 <= 1
 0 <= x199 <= 1
 0 <= x200 <= 1
 0 <= x201 <= 1
 0 <= x202 <= 1
 0 <= x203 <= 1
 0 <= x204 <= 1
 0 <= x205 <= 1
 0 <= x206 <= 1
 0 <= x207 <= 1
 0 <= x208 <= 1
 0 <= x209 <= 1
 0 <= x210 <= 1
 0 <= x211 <= 1
 0 <= x212 <= 1
 0 <= x213 <= 1
 0 <= x214 <= 1
 0 <= x215 <= 1
 0 <= x216 <= 1
 0 <= x217 <= 1
 0 <= x218 <= 1
 0 <= x219 <= 1
 0 <= x220 <= 1
 0 <= x221 <= 1
 0 <= x222 <= 1
 0 <= x223 <= 1
 0 <= x224 <= 1
 0 <= x225 <= 1
 0 <= x226 <= 1
 0 <= x227 <= 1
 0 <= x228 <= 1
 0 <= x229 <= 1
 0 <= x230 <= 1
 0 <= x231 <= 1
 0 <= x232 <= 1
 0 <= x233 <= 1
 0 <= x234 <= 1
 0 <= x235 <= 1
 0 <= x236 <= 1
 0 <= x237 <= 1
 0 <= x238 <= 1
 0 <= x239 <= 1
 0 <= x240 <= 1
 0 <= x241 <= 1
 0 <= x242 <= 1
 0 <= x243 <= 1
 0 <= x244 <= 1
 0 <= x245 <= 1
 0 <= x246 <= 1
 0 <= x247 <= 1
 0 <= x248 <= 1
 0 <= x249 <= 1
 0 <= x250 <= 1
 0 <= x251 <= 1
 0 <= x252 <= 1
 0 <= x253 <= 1
 0 <= x254 <= 1
 0 <= x255 <= 1
 0 <= x256 <= 1
 0 <= x257 <= 1
 0 <= x258 <= 1
 0 <= x259 <= 1
 0 <= x260 <= 1
 0 <= x261 <= 1
 0 <= x262 <= 1
 0 <= x263 <= 1
 0 <= x264 <= 1
 0 <= x265 <= 1
 0 <= x266 <= 1
 0 <= x267 <= 1
 0 <= x268 <= 1
 0 <= x269 <= 1
 0 <= x270 <= 1
 0 <= x271 <= 1
 0 <= x272 <= 1
 0 <= x273 <= 1
 0 <= x274 <= 1
 0 <= x275 <= 1
 0 <= x276 <= 1
 0 <= x277 <= 1
 0 <= x278 <= 1
 0 <= x279 <= 1
 0 <= x280 <= 1
 0 <= x281 <= 1
 0 <= x282 <= 1
 0 <= x283 <= 1
 0 <= x284 <= 1
 0 <= x285 <= 1
 0 <= x286 <= 1
 0 <= x287 <= 1
 0 <= x288 <= 1
 0 <= x289 <= 1
 0 <= x290 <= 1
 0 <= x291 <= 1
 0 <= x292 <= 1
 0 <= x293 <= 1
 0 <= x294 <= 1
 0 <= x295 <= 1
 0 <= x296 <= 1
 0 <= x297 <= 1
 0 <= x298 <= 1
 0 <= x299 <= 1
 0 <= x300 <= 1
 0 <= x301 <= 1
 0 <= x302 <= 1
 0 <= x303 <= 1
 0 <= x304 <= 1
 0 <= x305 <= 1
 0 <= x306 <= 1
 0 <= x307 <= 1
 0 <= x308 <= 1
 0 <= x309 <= 1
 0 <= x310 <= 1
 0 <= x311 <= 1
 0 <= x312 <= 1
 0 <= x313 <= 1
 0 <= x314 <= 1
 0 <= x315 <= 1
 0 <= x316 <= 1
 0 <= x317 <= 1
 0 <= x318 <= 1
 0 <= x319 <= 1
 0 <= x320 <= 1
 0 <= x321 <= 1
 0 <= x322 <= 1
 0 <= x323 <= 1
 0 <= x324 <= 1
 0 <= x325 <= 1
 0 <= x326 <= 1
 0 <= x327 <= 1
 0 <= x328 <= 1
 0 <= x329 <= 1
 0 <= x330 <= 1
 0 <= x331 <= 1
 0 <= x332 <= 1
 0 <= x333 <= 1
 0 <= x334 <= 1
 0 <= x335 <= 1
 0 <= x336 <= 1
 0 <= x337 <= 1
 0 <= x338 <= 1
 0 <= x339 <= 1
 0 <= x340 <= 1
 0 <= x341 <= 1
 0 <= x342 <= 1
 0 <= x343 <= 1
 0 <= x344 <= 1
 0 <= x345 <= 1
 0 <= x346 <= 1
 0 <= x347 <= 1
 0 <= x348 <= 1
 0 <= x349 <= 1
 0 <= x350 <= 1
 0 <= x351 <= 1
 0 <= x352 <= 1
 0 <= x353 <= 1
 0 <= x354 <= 1
 0 <= x355 <= 1
 0 <= x356 <= 1
 0 <= x357 <= 1
 0 <= x358 <= 1
 0 <= x359 <= 1
 0 <= x360 <= 1
Binaries
 x301  x302  x303  x304  x305  x306  x307  x308  x309  x310  x311  x312  x313 
 x314  x315  x316  x317  x318  x319  x320  x321  x322  x323  x324  x325  x326 
 x327  x328  x329  x330  x331  x332  x333  x334  x335  x336  x337  x338  x339 
 x340  x341  x342  x343  x344  x345  x346  x347  x348  x349  x350  x351  x352 
 x353  x354  x355  x356  x357  x358  x359  x360 
End
